\ENCODING=ISO-8859-1
\Problem name: IloCplex

Maximize
 obj: y_0,1 + y_0,2 + y_0,3 + y_1,2 + y_1,3 + y_2,3 + z_0,1,2 + z_0,1,3
      + z_0,2,3 + z_1,2,3 + z_2,1,0 + z_3,1,0 + z_3,2,0 + z_3,2,1 + x15
Subject To
 c1:  y_0,1 - y_1,0  = 0
 c2:  y_0,2 - y_2,0  = 0
 c3:  y_0,3 - y_3,0  = 0
 c4:  y_1,2 - y_2,1  = 0
 c5:  y_1,3 - y_3,1  = 0
 c6:  y_2,3 - y_3,2  = 0
 c7:  z_0,0,0  = 0
 c8:  z_0,1,0  = 0
 c9:  z_0,1,1  = 0
 c10: z_0,2,0  = 0
 c11: z_0,2,1  = 0
 c12: z_0,2,2  = 0
 c13: z_0,3,0  = 0
 c14: z_0,3,1  = 0
 c15: z_0,3,2  = 0
 c16: z_0,3,3  = 0
 c17: z_1,0,1  = 0
 c18: z_1,0,2  = 0
 c19: z_1,0,3  = 0
 c20: z_1,1,0  = 0
 c21: z_1,1,1  = 0
 c22: z_1,2,0  = 0
 c23: z_1,2,1  = 0
 c24: z_1,2,2  = 0
 c25: z_1,3,0  = 0
 c26: z_1,3,1  = 0
 c27: z_1,3,2  = 0
 c28: z_1,3,3  = 0
 c29: z_2,0,1  = 0
 c30: z_2,0,2  = 0
 c31: z_2,0,3  = 0
 c32: z_2,1,2  = 0
 c33: z_2,1,3  = 0
 c34: z_2,2,0  = 0
 c35: z_2,2,1  = 0
 c36: z_2,2,2  = 0
 c37: z_2,3,0  = 0
 c38: z_2,3,1  = 0
 c39: z_2,3,2  = 0
 c40: z_2,3,3  = 0
 c41: z_3,0,1  = 0
 c42: z_3,0,2  = 0
 c43: z_3,0,3  = 0
 c44: z_3,1,2  = 0
 c45: z_3,1,3  = 0
 c46: z_3,2,3  = 0
 c47: z_3,3,0  = 0
 c48: z_3,3,1  = 0
 c49: z_3,3,2  = 0
 c50: z_3,3,3  = 0
 c51: y_0,0  = 0
 c52: y_1,1  = 0
 c53: y_2,2  = 0
 c54: y_3,3  = 0
 c55: z_0,1,2 >= 0
 c56: z_0,1,3 >= 0
 c57: z_0,2,3 >= 0
 c58: z_1,2,3 >= 0
 c59: z_0,1,2 + z_3,2,0 + y_2,0 <= 0
 c60: z_0,1,3 + z_0,2,3 + y_3,0 <= 0
 c61: y_1,2 + z_0,1,2 + z_1,2,3 <= 0
 c62: z_2,1,0 + z_3,2,1 + y_2,1 <= 0
 c63: z_1,2,3 + z_3,1,0 + y_3,1 <= 0
 c64: y_2,3 + z_0,2,3 + z_1,2,3 <= 0
Bounds
 -Inf <= y_0,1 <= 1
 -Inf <= y_0,2 <= 1
 -Inf <= y_0,3 <= 1
 -Inf <= y_1,2 <= 1
 -Inf <= y_1,3 <= 1
 -Inf <= y_2,3 <= 1
 -Inf <= z_0,1,2 <= 1
 -Inf <= z_0,1,3 <= 1
 -Inf <= z_0,2,3 <= 1
 -Inf <= z_1,2,3 <= 1
 -Inf <= z_2,1,0 <= 1
 -Inf <= z_3,1,0 <= 1
 -Inf <= z_3,2,0 <= 1
 -Inf <= z_3,2,1 <= 1
      x15 = 0
 -Inf <= y_1,0 <= 1
 -Inf <= y_2,0 <= 1
 -Inf <= y_3,0 <= 1
 -Inf <= y_2,1 <= 1
 -Inf <= y_3,1 <= 1
 -Inf <= y_3,2 <= 1
 -Inf <= z_0,0,0 <= 1
 -Inf <= z_0,1,0 <= 1
 -Inf <= z_0,1,1 <= 1
 -Inf <= z_0,2,0 <= 1
 -Inf <= z_0,2,1 <= 1
 -Inf <= z_0,2,2 <= 1
 -Inf <= z_0,3,0 <= 1
 -Inf <= z_0,3,1 <= 1
 -Inf <= z_0,3,2 <= 1
 -Inf <= z_0,3,3 <= 1
 -Inf <= z_1,0,1 <= 1
 -Inf <= z_1,0,2 <= 1
 -Inf <= z_1,0,3 <= 1
 -Inf <= z_1,1,0 <= 1
 -Inf <= z_1,1,1 <= 1
 -Inf <= z_1,2,0 <= 1
 -Inf <= z_1,2,1 <= 1
 -Inf <= z_1,2,2 <= 1
 -Inf <= z_1,3,0 <= 1
 -Inf <= z_1,3,1 <= 1
 -Inf <= z_1,3,2 <= 1
 -Inf <= z_1,3,3 <= 1
 -Inf <= z_2,0,1 <= 1
 -Inf <= z_2,0,2 <= 1
 -Inf <= z_2,0,3 <= 1
 -Inf <= z_2,1,2 <= 1
 -Inf <= z_2,1,3 <= 1
 -Inf <= z_2,2,0 <= 1
 -Inf <= z_2,2,1 <= 1
 -Inf <= z_2,2,2 <= 1
 -Inf <= z_2,3,0 <= 1
 -Inf <= z_2,3,1 <= 1
 -Inf <= z_2,3,2 <= 1
 -Inf <= z_2,3,3 <= 1
 -Inf <= z_3,0,1 <= 1
 -Inf <= z_3,0,2 <= 1
 -Inf <= z_3,0,3 <= 1
 -Inf <= z_3,1,2 <= 1
 -Inf <= z_3,1,3 <= 1
 -Inf <= z_3,2,3 <= 1
 -Inf <= z_3,3,0 <= 1
 -Inf <= z_3,3,1 <= 1
 -Inf <= z_3,3,2 <= 1
 -Inf <= z_3,3,3 <= 1
 -Inf <= y_0,0 <= 1
 -Inf <= y_1,1 <= 1
 -Inf <= y_2,2 <= 1
 -Inf <= y_3,3 <= 1
End
